; benchmark generated from python API
(set-info :status unknown)
(declare-datatypes ((RealState 0)) (((RMk1 (rval1 Real)) (RMk2 (rval2 Real)))))
 (declare-fun yuscore2dollarskuscore24 () Real)
(declare-fun t13uscore0dollarskuscore1 () Real)
(declare-fun stuscore2dollarskuscore24 () Real)
(declare-fun xuscore2dollarskuscore16 () Real)
(assert
 (let (($x211 (exists ((ts13uscore1_st RealState) (val!138 Real) )(let (($x150 (<= (+ (* (- 2.0) t13uscore0dollarskuscore1) yuscore2dollarskuscore24) 12.0)))
 (let (($x230 (= stuscore2dollarskuscore24 3.0)))
 (let (($x91 (or $x230 $x150)))
 (let (($x110 (<= yuscore2dollarskuscore24 (+ 10.0 xuscore2dollarskuscore16))))
 (let (($x126 (<= yuscore2dollarskuscore24 12.0)))
 (let (($x162 (>= yuscore2dollarskuscore24 1.0)))
 (let (($x196 (= stuscore2dollarskuscore24 2.0)))
 (let (($x127 (< yuscore2dollarskuscore24 5.0)))
 (let (($x176 (>= t13uscore0dollarskuscore1 0.0)))
 (let (($x58 (and (<= 0.0 (rval2 ts13uscore1_st)) (<= (rval2 ts13uscore1_st) t13uscore0dollarskuscore1))))
 (let (($x224 (=> $x58 (>= (+ (* (- 2.0) (rval2 ts13uscore1_st)) yuscore2dollarskuscore24) 5.0))))
 (let (($x93 (and (and (and (and (and (and $x224 $x176) $x127) $x196) $x162) $x126) $x110)))
 (let (($x94 (not (= ts13uscore1_st (RMk1 val!138)))))
 (and $x94 (=> $x93 $x91))))))))))))))))
 ))
 (not $x211)))
(check-sat)
